data/CVRPLIB/Vrp-Set-XML100/instances/XML100_1213_25.vrp
NAME : XML100_1213_25
COMMENT : Generated by Queiroga, Sadykov, Uchoa, and Vidal (2021)
TYPE : CVRP
DIMENSION : 101
EDGE_WEIGHT_TYPE : EUC_2D
CAPACITY : 9
NODE_COORD_SECTION
1    155  610 
2    441  368 
3    837  816 
4    537  31  
5    455  614 
6    863  816 
7    462  593 
8    732  788 
9    802  869 
10   297  313 
11   612  270 
12   198  638 
13   337  194 
14   536  14  
15   544  400 
16   856  851 
17   279  485 
18   589  653 
19   874  755 
20   539  209 
21   357  634 
22   346  433 
23   849  231 
24   256  88  
25   392  565 
26   405  157 
27   720  852 
28   523  15  
29   408  32  
30   644  193 
31   431  54  
32   786  44  
33   305  256 
34   482  23  
35   470  572 
36   526  66  
37   57   484 
38   172  89  
39   359  360 
40   540  49  
41   375  28  
42   591  252 
43   369  344 
44   268  228 
45   876  849 
46   454  566 
47   310  299 
48   398  514 
49   436  506 
50   563  33  
51   477  605 
52   461  164 
53   543  69  
54   629  868 
55   775  748 
56   294  379 
57   690  824 
58   362  230 
59   280  293 
60   781  805 
61   972  188 
62   463  52  
63   264  501 
64   802  897 
65   556  31  
66   401  495 
67   566  109 
68   411  469 
69   747  745 
70   286  528 
71   891  822 
72   365  503 
73   772  869 
74   953  888 
75   762  46  
76   696  700 
77   550  43  
78   523  226 
79   738  822 
80   472  86  
81   451  666 
82   257  214 
83   294  156 
84   115  145 
85   889  736 
86   816  820 
87   424  379 
88   993  980 
89   760  276 
90   476  421 
91   303  545 
92   413  374 
93   176  281 
94   327  514 
95   491  121 
96   726  837 
97   462  550 
98   690  381 
99   379  552 
100  318  594 
101  227  36  
DEMAND_SECTION
1    0   
2    1   
3    1   
4    1   
5    1   
6    1   
7    1   
8    1   
9    1   
10   1   
11   1   
12   1   
13   1   
14   1   
15   1   
16   1   
17   1   
18   1   
19   1   
20   1   
21   1   
22   1   
23   1   
24   1   
25   1   
26   1   
27   1   
28   1   
29   1   
30   1   
31   1   
32   1   
33   1   
34   1   
35   1   
36   1   
37   1   
38   1   
39   1   
40   1   
41   1   
42   1   
43   1   
44   1   
45   1   
46   1   
47   1   
48   1   
49   1   
50   1   
51   1   
52   1   
53   1   
54   1   
55   1   
56   1   
57   1   
58   1   
59   1   
60   1   
61   1   
62   1   
63   1   
64   1   
65   1   
66   1   
67   1   
68   1   
69   1   
70   1   
71   1   
72   1   
73   1   
74   1   
75   1   
76   1   
77   1   
78   1   
79   1   
80   1   
81   1   
82   1   
83   1   
84   1   
85   1   
86   1   
87   1   
88   1   
89   1   
90   1   
91   1   
92   1   
93   1   
94   1   
95   1   
96   1   
97   1   
98   1   
99   1   
100  1   
101  1   
DEPOT_SECTION
1
-1
EOF
