data/CVRPLIB/Vrp-Set-XML100/solutions/XML100_1213_25.sol
Route #1: 11
Route #2: 41 10 29 74 31 60 22 88 97
Route #3: 36 83 37 100 23 40 28 30 25
Route #4: 59 85 2 5 70 18 84 54 68
Route #5: 62 16 21 67 65 47 71 93 69
Route #6: 55 38 42 91 86 1 14 89 48
Route #7: 26 72 8 15 44 73 87 63 53
Route #8: 90 98 24 45 96 34 6 4 99
Route #9: 39 76 49 64 3 13 27 33 61
Route #10: 50 17 75 7 78 95 56 80 20
Route #11: 77 19 66 52 35 79 94 51 57
Route #12: 9 46 58 32 12 82 81 43 92
Cost 14891
